data;

param w := 37;
param n := 27;
param min_h := 37;
param max_h := 57;

set BLOCKS := 1 2 3 4 5 6 7 8 9 10 11 12 13 14 15 16 17 18 19 20 21 22 23 24 25 26 27 ;

param:	width	height :=
	1	12	37
	2	4	24
	3	4	22
	4	5	14
	5	3	21
	6	3	18
	7	3	17
	8	5	10
	9	3	14
	10	4	10
	11	3	13
	12	3	12
	13	3	11
	14	5	6
	15	3	9
	16	4	6
	17	3	8
	18	3	7
	19	4	5
	20	5	4
	21	3	6
	22	4	4
	23	5	3
	24	3	5
	25	3	4
	26	4	3
	27	3	3;